========================================================== 
File name: C:\DEGR\assets\definitions\MSRCPSP_Gen\100_10_64_10_A.def
Creation date: Wed May 03 10:38:14 CEST 2023
Website: http://imopse.ii.pwr.edu.pl/ 
Reference: 
Myszkowski P. B., Skowronski M. E., Olech L., Oslizlo K., 
Hybrid Ant Colony Optimization in solving Multi-Skill Resource-Constrained Project Scheduling Problem, 
Soft Computing, DOI: DOI 10.1007/s00500-014-1455-x 
========================================================== 
General characteristics: 
Tasks: 100
Resources: 10
Precedence relations: 64
Number of skill types: 10
========================================================== 
ResourceID 	 Salary 	 Skills 
1	 	 	13.8	 	 Q7: 1 	  Q9: 3 	  Q1: 2 	  Q8: 0 	  Q5: 2 	  Q4: 2 	  Q2: 3 	  Q6: 3 	 
2	 	 	67.7	 	 Q2: 2 	  Q0: 1 	  Q8: 1 	  Q6: 3 	  Q7: 1 	  Q4: 2 	  Q1: 0 	 
3	 	 	86.6	 	 Q6: 0 	  Q7: 2 	  Q9: 2 	  Q5: 1 	  Q0: 0 	  Q8: 3 	  Q4: 2 	  Q1: 2 	  Q3: 3 	 
4	 	 	28.8	 	 Q2: 1 	  Q6: 1 	  Q0: 3 	  Q5: 0 	  Q1: 3 	  Q4: 1 	  Q7: 2 	 
5	 	 	95.3	 	 Q8: 0 	  Q3: 2 	  Q9: 1 	  Q2: 3 	  Q7: 2 	  Q1: 1 	  Q6: 3 	 
6	 	 	32.6	 	 Q7: 3 	  Q4: 1 	 
7	 	 	31.5	 	 Q8: 3 	  Q1: 2 	  Q3: 3 	  Q0: 2 	  Q5: 0 	 
8	 	 	66.0	 	 Q2: 1 	  Q3: 0 	  Q4: 2 	  Q7: 1 	  Q6: 1 	  Q5: 1 	  Q9: 3 	 
9	 	 	23.9	 	 Q6: 2 	  Q0: 2 	 
10	 	 	34.6	 	 Q1: 0 	  Q4: 1 	  Q8: 1 	  Q7: 0 	  Q5: 2 	  Q6: 1 	 
========================================================== 
TaskID 	 Duration 	 Skill 	 Predecessor IDs 
1	39	Q6:	3
2	38	Q1:	3
3	27	Q1:	3
4	33	Q2:	2
5	9	Q4:	1
6	38	Q5:	1
7	9	Q8:	1
8	34	Q1:	1
9	30	Q1:	0	2
10	27	Q7:	1
11	26	Q4:	2	5
12	10	Q9:	3
13	19	Q1:	2
14	14	Q5:	2
15	23	Q7:	0
16	12	Q0:	0
17	33	Q0:	1	15
18	11	Q1:	3
19	15	Q1:	1
20	11	Q2:	1
21	29	Q3:	0
22	36	Q5:	1
23	10	Q8:	0
24	30	Q0:	0
25	30	Q3:	0
26	32	Q6:	0
27	29	Q3:	0
28	9	Q7:	3
29	10	Q5:	2
30	18	Q5:	0
31	14	Q5:	2
32	27	Q9:	3	22
33	27	Q9:	1
34	33	Q0:	1	25
35	30	Q2:	1
36	25	Q0:	1	35	32
37	39	Q5:	0	8	16
38	23	Q6:	1
39	18	Q4:	1
40	27	Q9:	1
41	13	Q7:	3
42	9	Q5:	0
43	31	Q7:	3	15
44	37	Q7:	1
45	18	Q2:	3
46	20	Q7:	1
47	14	Q1:	0
48	38	Q9:	1
49	35	Q1:	0
50	40	Q0:	0	16
51	35	Q8:	1	16	7
52	20	Q1:	2
53	14	Q4:	2	15	5
54	24	Q0:	0	16	40	14
55	33	Q7:	1
56	31	Q5:	2
57	17	Q7:	0	50
58	8	Q7:	2
59	27	Q2:	2	3
60	37	Q9:	1
61	37	Q1:	1
62	21	Q4:	1	47
63	34	Q0:	2	59
64	17	Q9:	3	50
65	9	Q4:	1	41
66	18	Q8:	3	17	12	9
67	39	Q0:	2	28	41
68	12	Q7:	2
69	27	Q3:	3	28
70	33	Q5:	1	63
71	20	Q3:	0	26	24	9
72	39	Q9:	2	33
73	38	Q8:	3
74	24	Q1:	2	39
75	24	Q2:	2	56
76	37	Q0:	3	31	12
77	14	Q5:	2
78	17	Q9:	3	6	35
79	35	Q3:	0	30	62
80	29	Q7:	0	5
81	22	Q9:	3
82	11	Q0:	2	28
83	32	Q5:	0	39
84	18	Q5:	2	23
85	31	Q1:	1	30	14
86	29	Q9:	3
87	34	Q9:	3
88	17	Q6:	2	79
89	40	Q5:	1
90	14	Q4:	1
91	9	Q7:	0	26	51	70
92	31	Q2:	2
93	26	Q1:	2	26
94	9	Q8:	1	67
95	14	Q3:	0	70
96	10	Q9:	1	94	53
97	14	Q6:	1	29	53	37
98	27	Q6:	1	73
99	32	Q0:	3	46
100	35	Q6:	0	22
========================================================== 